NAME : ftv64.80.2659.tour
COMMENT : Length = 2659
COMMENT : Found by LKH [Keld Helsgaun] Tue Dec 11 00:01:48 2018
TYPE : TOUR
DIMENSION : 67
TOUR_SECTION
1
62
2
38
51
29
28
27
22
49
23
24
36
21
47
46
43
12
13
44
42
10
15
40
45
20
50
60
25
30
55
67
57
33
31
54
32
63
53
52
26
64
56
34
66
19
18
17
14
16
61
11
37
9
41
8
48
6
7
58
59
5
35
65
39
3
4
-1
EOF
